NAME : morphed20-2-29
COMMENT : Generated using the function morphInstances from the R-package netgen (Bossek,2015) - Number of clusters: 2 Alpha: 0.5
TYPE : TSP
DIMENSION : 20
EDGE_WEIGHT_TYPE : EUC_2D
NODE_COORD_SECTION
1 12.2527593019 78.8931327611
2 28.0692501518 71.704515676
3 12.4430698338 96.3737931035
4 25.755983642 99.0106879853
5 65.1298967769 47.2908107689
6 15.5389933124 59.3352186802
7 78.0815351921 36.188211064
8 61.2093039882 90.2638012299
9 16.8702454579 80.3171373909
10 47.5493190313 20.6276650985
11 88.3162044593 28.756043079
12 52.4253472614 14.9053047398
13 50.0521419701 9.5771718765
14 51.5863745237 71.1622230598
15 21.9450771179 65.6551462932
16 84.5435417209 11.4438550939
17 44.8276684608 95.3109299801
18 51.1404427079 30.0262914025
19 84.1410582623 28.9349697094
20 52.1152217096 7.0085142511
EOF
